c Reduced graph for GEOM50 generated by Cyril Grelier
p edge 50 127
e 1 2
e 1 3
e 1 13
e 1 23
e 1 26
e 1 32
e 1 40
e 2 11
e 2 13
e 2 23
e 2 26
e 2 32
e 2 48
e 3 23
e 3 26
e 3 34
e 3 35
e 3 40
e 4 7
e 4 8
e 4 18
e 4 33
e 4 42
e 5 13
e 5 29
e 5 31
e 5 37
e 6 16
e 6 43
e 6 46
e 6 47
e 7 33
e 8 18
e 8 33
e 8 38
e 8 42
e 8 46
e 9 17
e 9 21
e 9 43
e 9 47
e 9 49
e 10 12
e 10 19
e 10 39
e 10 44
e 10 45
e 11 14
e 11 23
e 11 24
e 11 26
e 11 32
e 11 48
e 12 19
e 12 39
e 12 44
e 12 45
e 13 23
e 14 32
e 14 39
e 14 48
e 15 28
e 15 34
e 15 35
e 15 40
e 16 20
e 16 22
e 16 27
e 16 38
e 16 46
e 17 21
e 17 29
e 17 43
e 17 47
e 17 49
e 18 27
e 18 33
e 18 38
e 18 42
e 19 39
e 19 44
e 19 45
e 20 22
e 20 27
e 20 38
e 20 46
e 21 29
e 21 43
e 22 29
e 23 24
e 23 26
e 23 32
e 24 26
e 24 30
e 24 32
e 24 41
e 25 27
e 25 36
e 25 48
e 26 30
e 26 32
e 26 41
e 27 36
e 27 38
e 27 42
e 28 31
e 28 35
e 28 40
e 30 34
e 30 41
e 31 37
e 33 38
e 33 42
e 34 35
e 34 40
e 34 41
e 35 40
e 35 41
e 36 48
e 38 42
e 38 46
e 39 44
e 39 45
e 43 47
e 43 49
e 44 45
e 47 49
